NAME netflow
ROWS
 N  OBJ
 L  c0      
 L  c1      
 L  c2      
 L  c3      
 L  c4      
 L  c5      
 L  c6      
 E  c7      
 E  c8      
 E  c9      
 E  c10     
 E  c11     
 E  c12     
 E  c13     
 E  c14     
 E  c15     
 E  c16     
 E  c17     
 E  c18     
 E  c19     
 E  c20     
 E  c21     
 E  c22     
 E  c23     
 E  c24     
 E  c25     
 E  c26     
COLUMNS
    flow[instagram,1.0,2.0]  OBJ       1
    flow[instagram,1.0,2.0]  c0        1
    flow[instagram,1.0,2.0]  c7        1
    flow[instagram,1.0,2.0]  c8        -1
    flow[instagram,1.0,3.0]  OBJ       1
    flow[instagram,1.0,3.0]  c1        1
    flow[instagram,1.0,3.0]  c7        1
    flow[instagram,1.0,3.0]  c9        -1
    flow[instagram,2.0,3.0]  OBJ       2
    flow[instagram,2.0,3.0]  c2        1
    flow[instagram,2.0,3.0]  c8        1
    flow[instagram,2.0,3.0]  c9        -1
    flow[instagram,4.0,5.0]  OBJ       3
    flow[instagram,4.0,5.0]  c3        1
    flow[instagram,4.0,5.0]  c10       1
    flow[instagram,4.0,5.0]  c11       -1
    flow[instagram,3.0,4.0]  OBJ       8
    flow[instagram,3.0,4.0]  c4        1
    flow[instagram,3.0,4.0]  c9        1
    flow[instagram,3.0,4.0]  c10       -1
    flow[instagram,2.0,4.0]  OBJ       4
    flow[instagram,2.0,4.0]  c5        1
    flow[instagram,2.0,4.0]  c8        1
    flow[instagram,2.0,4.0]  c10       -1
    flow[instagram,3.0,5.0]  OBJ       5
    flow[instagram,3.0,5.0]  c6        1
    flow[instagram,3.0,5.0]  c9        1
    flow[instagram,3.0,5.0]  c11       -1
    flow[twitter,1.0,2.0]  c0        1
    flow[twitter,1.0,2.0]  c12       1
    flow[twitter,1.0,2.0]  c13       -1
    flow[twitter,1.0,3.0]  c1        1
    flow[twitter,1.0,3.0]  c12       1
    flow[twitter,1.0,3.0]  c14       -1
    flow[twitter,2.0,3.0]  c2        1
    flow[twitter,2.0,3.0]  c13       1
    flow[twitter,2.0,3.0]  c14       -1
    flow[twitter,4.0,5.0]  c3        1
    flow[twitter,4.0,5.0]  c15       1
    flow[twitter,4.0,5.0]  c16       -1
    flow[twitter,3.0,4.0]  c4        1
    flow[twitter,3.0,4.0]  c14       1
    flow[twitter,3.0,4.0]  c15       -1
    flow[twitter,2.0,4.0]  c5        1
    flow[twitter,2.0,4.0]  c13       1
    flow[twitter,2.0,4.0]  c15       -1
    flow[twitter,3.0,5.0]  c6        1
    flow[twitter,3.0,5.0]  c14       1
    flow[twitter,3.0,5.0]  c16       -1
    flow[zoom,1.0,2.0]  c0        1
    flow[zoom,1.0,2.0]  c17       1
    flow[zoom,1.0,2.0]  c18       -1
    flow[zoom,1.0,3.0]  c1        1
    flow[zoom,1.0,3.0]  c17       1
    flow[zoom,1.0,3.0]  c19       -1
    flow[zoom,2.0,3.0]  c2        1
    flow[zoom,2.0,3.0]  c18       1
    flow[zoom,2.0,3.0]  c19       -1
    flow[zoom,4.0,5.0]  c3        1
    flow[zoom,4.0,5.0]  c20       1
    flow[zoom,4.0,5.0]  c21       -1
    flow[zoom,3.0,4.0]  c4        1
    flow[zoom,3.0,4.0]  c19       1
    flow[zoom,3.0,4.0]  c20       -1
    flow[zoom,2.0,4.0]  c5        1
    flow[zoom,2.0,4.0]  c18       1
    flow[zoom,2.0,4.0]  c20       -1
    flow[zoom,3.0,5.0]  c6        1
    flow[zoom,3.0,5.0]  c19       1
    flow[zoom,3.0,5.0]  c21       -1
    flow[netflix,1.0,2.0]  c0        1
    flow[netflix,1.0,2.0]  c22       1
    flow[netflix,1.0,2.0]  c23       -1
    flow[netflix,1.0,3.0]  c1        1
    flow[netflix,1.0,3.0]  c22       1
    flow[netflix,1.0,3.0]  c24       -1
    flow[netflix,2.0,3.0]  c2        1
    flow[netflix,2.0,3.0]  c23       1
    flow[netflix,2.0,3.0]  c24       -1
    flow[netflix,4.0,5.0]  c3        1
    flow[netflix,4.0,5.0]  c25       1
    flow[netflix,4.0,5.0]  c26       -1
    flow[netflix,3.0,4.0]  c4        1
    flow[netflix,3.0,4.0]  c24       1
    flow[netflix,3.0,4.0]  c25       -1
    flow[netflix,2.0,4.0]  c5        1
    flow[netflix,2.0,4.0]  c23       1
    flow[netflix,2.0,4.0]  c25       -1
    flow[netflix,3.0,5.0]  c6        1
    flow[netflix,3.0,5.0]  c24       1
    flow[netflix,3.0,5.0]  c26       -1
RHS
    RHS1      c0        20
    RHS1      c1        10
    RHS1      c2        10
    RHS1      c3        30
    RHS1      c4        40
    RHS1      c5        20
    RHS1      c6        10
    RHS1      c7        15
    RHS1      c10       -15
    RHS1      c12       5
    RHS1      c16       -5
    RHS1      c18       10
    RHS1      c21       -10
    RHS1      c24       5
    RHS1      c26       -5
BOUNDS
ENDATA
